; SPDX-License-Identifier: MPL-2.0
; Copyright (c) 2026 The RIINA Authors.
; Auto-generated from 02_FORMAL/coq/domains/HumanFactorSecurity.v (54 validations)
; Generated by scripts/generate-full-stack.py
;
; Translation Validation for HumanFactorSecurity
; Layer 9: Verifies compiler backend preserves formal semantics.
; Each assertion checks source IR ≡ target code for a proven property.

(set-logic QF_LIA)
(set-option :produce-models true)

; IR node representation
(declare-sort IRNode 0)
(declare-sort TargetNode 0)

; webauthn_is_phishing_resistant: source semantics (matches Coq)
(declare-fun source_webauthn_is_phishing_resistant () Bool)
(declare-fun target_webauthn_is_phishing_resistant () Bool)
(assert (= source_webauthn_is_phishing_resistant target_webauthn_is_phishing_resistant))

; is_phishing_resistant_auth: source semantics (matches Coq)
(declare-fun source_is_phishing_resistant_auth () Bool)
(declare-fun target_is_phishing_resistant_auth () Bool)
(assert (= source_is_phishing_resistant_auth target_is_phishing_resistant_auth))

; verification_procedures_adequate: source semantics (matches Coq)
(declare-fun source_verification_procedures_adequate () Bool)
(declare-fun target_verification_procedures_adequate () Bool)
(assert (= source_verification_procedures_adequate target_verification_procedures_adequate))

; training_effective: source semantics (matches Coq)
(declare-fun source_training_effective () Bool)
(declare-fun target_training_effective () Bool)
(assert (= source_training_effective target_training_effective))

; executive_verification_enhanced: source semantics (matches Coq)
(declare-fun source_executive_verification_enhanced () Bool)
(declare-fun target_executive_verification_enhanced () Bool)
(assert (= source_executive_verification_enhanced target_executive_verification_enhanced))

; callback_verification_active: source semantics (matches Coq)
(declare-fun source_callback_verification_active () Bool)
(declare-fun target_callback_verification_active () Bool)
(assert (= source_callback_verification_active target_callback_verification_active))

; smishing_controls_active: source semantics (matches Coq)
(declare-fun source_smishing_controls_active () Bool)
(declare-fun target_smishing_controls_active () Bool)
(assert (= source_smishing_controls_active target_smishing_controls_active))

; device_control_active: source semantics (matches Coq)
(declare-fun source_device_control_active () Bool)
(declare-fun target_device_control_active () Bool)
(assert (= source_device_control_active target_device_control_active))

; physical_access_controlled: source semantics (matches Coq)
(declare-fun source_physical_access_controlled () Bool)
(declare-fun target_physical_access_controlled () Bool)
(assert (= source_physical_access_controlled target_physical_access_controlled))

; secure_disposal_implemented: source semantics (matches Coq)
(declare-fun source_secure_disposal_implemented () Bool)
(declare-fun target_secure_disposal_implemented () Bool)
(assert (= source_secure_disposal_implemented target_secure_disposal_implemented))

; privacy_protection_active: source semantics (matches Coq)
(declare-fun source_privacy_protection_active () Bool)
(declare-fun target_privacy_protection_active () Bool)
(assert (= source_privacy_protection_active target_privacy_protection_active))

; insider_threat_controls_active: source semantics (matches Coq)
(declare-fun source_insider_threat_controls_active () Bool)
(declare-fun target_insider_threat_controls_active () Bool)
(assert (= source_insider_threat_controls_active target_insider_threat_controls_active))

; coercion_resilience_active: source semantics (matches Coq)
(declare-fun source_coercion_resilience_active () Bool)
(declare-fun target_coercion_resilience_active () Bool)
(assert (= source_coercion_resilience_active target_coercion_resilience_active))

; bribery_controls_active: source semantics (matches Coq)
(declare-fun source_bribery_controls_active () Bool)
(declare-fun target_bribery_controls_active () Bool)
(assert (= source_bribery_controls_active target_bribery_controls_active))

; security_culture_active: source semantics (matches Coq)
(declare-fun source_security_culture_active () Bool)
(declare-fun target_security_culture_active () Bool)
(assert (= source_security_culture_active target_security_culture_active))

; social_engineering_controls_active: source semantics (matches Coq)
(declare-fun source_social_engineering_controls_active () Bool)
(declare-fun target_social_engineering_controls_active () Bool)
(assert (= source_social_engineering_controls_active target_social_engineering_controls_active))

; credential_sharing_controls_active: source semantics (matches Coq)
(declare-fun source_credential_sharing_controls_active () Bool)
(declare-fun target_credential_sharing_controls_active () Bool)
(assert (= source_credential_sharing_controls_active target_credential_sharing_controls_active))

; password_policy_strong: source semantics (matches Coq)
(declare-fun source_password_policy_strong () Bool)
(declare-fun target_password_policy_strong () Bool)
(assert (= source_password_policy_strong target_password_policy_strong))

; unique_passwords_active: source semantics (matches Coq)
(declare-fun source_unique_passwords_active () Bool)
(declare-fun target_unique_passwords_active () Bool)
(assert (= source_unique_passwords_active target_unique_passwords_active))

; unsafe_behavior_controls_active: source semantics (matches Coq)
(declare-fun source_unsafe_behavior_controls_active () Bool)
(declare-fun target_unsafe_behavior_controls_active () Bool)
(assert (= source_unsafe_behavior_controls_active target_unsafe_behavior_controls_active))

; automated_config_active: source semantics (matches Coq)
(declare-fun source_automated_config_active () Bool)
(declare-fun target_automated_config_active () Bool)
(assert (= source_automated_config_active target_automated_config_active))

; multi_maintainer_review_active: source semantics (matches Coq)
(declare-fun source_multi_maintainer_review_active () Bool)
(declare-fun target_multi_maintainer_review_active () Bool)
(assert (= source_multi_maintainer_review_active target_multi_maintainer_review_active))

; threat_mitigated: source semantics (matches Coq)
(declare-fun source_threat_mitigated () Bool)
(declare-fun target_threat_mitigated () Bool)
(assert (= source_threat_mitigated target_threat_mitigated))

; attack_success_rate: source semantics (matches Coq)
(declare-fun source_attack_success_rate () Bool)
(declare-fun target_attack_success_rate () Bool)
(assert (= source_attack_success_rate target_attack_success_rate))

; control_effective: source semantics (matches Coq)
(declare-fun source_control_effective () Bool)
(declare-fun target_control_effective () Bool)
(assert (= source_control_effective target_control_effective))

; fully_secured_state: source semantics (matches Coq)
(declare-fun source_fully_secured_state () Bool)
(declare-fun target_fully_secured_state () Bool)
(assert (= source_fully_secured_state target_fully_secured_state))

; example_secure_state: source semantics (matches Coq)
(declare-fun source_example_secure_state () Bool)
(declare-fun target_example_secure_state () Bool)
(assert (= source_example_secure_state target_example_secure_state))

; bool_eq_true: translation preserves property (matches Coq: Lemma)
(declare-fun source_bool_eq_true () Bool)
(declare-fun target_bool_eq_true () Bool)
(assert (= source_bool_eq_true target_bool_eq_true))

; advanced_training_implies_basic: translation preserves property (matches Coq: Lemma)
(declare-fun source_advanced_training_implies_basic () Bool)
(declare-fun target_advanced_training_implies_basic () Bool)
(assert (= source_advanced_training_implies_basic target_advanced_training_implies_basic))

; multi_party_is_adequate: translation preserves property (matches Coq: Lemma)
(declare-fun source_multi_party_is_adequate () Bool)
(declare-fun target_multi_party_is_adequate () Bool)
(assert (= source_multi_party_is_adequate target_multi_party_is_adequate))

; mantrap_implies_controlled: translation preserves property (matches Coq: Lemma)
(declare-fun source_mantrap_implies_controlled () Bool)
(declare-fun target_mantrap_implies_controlled () Bool)
(assert (= source_mantrap_implies_controlled target_mantrap_implies_controlled))

; immutable_implies_automated: translation preserves property (matches Coq: Lemma)
(declare-fun source_immutable_implies_automated () Bool)
(declare-fun target_immutable_implies_automated () Bool)
(assert (= source_immutable_implies_automated target_immutable_implies_automated))

; zero_trust_is_strong: translation preserves property (matches Coq: Lemma)
(declare-fun source_zero_trust_is_strong () Bool)
(declare-fun target_zero_trust_is_strong () Bool)
(assert (= source_zero_trust_is_strong target_zero_trust_is_strong))

; hum_001_phishing_mitigated_by_webauthn: translation preserves property (matches Coq: Theorem)
(declare-fun source_hum_001_phishing_mitigated_by_webauthn () Bool)
(declare-fun target_hum_001_phishing_mitigated_by_webauthn () Bool)
(assert (= source_hum_001_phishing_mitigated_by_webauthn target_hum_001_phishing_mitigated_by_webauthn))

; hum_001_phishing_control_effective: translation preserves property (matches Coq: Theorem)
(declare-fun source_hum_001_phishing_control_effective () Bool)
(declare-fun target_hum_001_phishing_control_effective () Bool)
(assert (= source_hum_001_phishing_control_effective target_hum_001_phishing_control_effective))

; hum_002_spear_phishing_mitigated: translation preserves property (matches Coq: Theorem)
(declare-fun source_hum_002_spear_phishing_mitigated () Bool)
(declare-fun target_hum_002_spear_phishing_mitigated () Bool)
(assert (= source_hum_002_spear_phishing_mitigated target_hum_002_spear_phishing_mitigated))

; hum_002_spear_phishing_control_effective: translation preserves property (matches Coq: Theorem)
(declare-fun source_hum_002_spear_phishing_control_effective () Bool)
(declare-fun target_hum_002_spear_phishing_control_effective () Bool)
(assert (= source_hum_002_spear_phishing_control_effective target_hum_002_spear_phishing_control_effective))

; hum_003_whaling_mitigated: translation preserves property (matches Coq: Theorem)
(declare-fun source_hum_003_whaling_mitigated () Bool)
(declare-fun target_hum_003_whaling_mitigated () Bool)
(assert (= source_hum_003_whaling_mitigated target_hum_003_whaling_mitigated))

; hum_003_whaling_control_effective: translation preserves property (matches Coq: Theorem)
(declare-fun source_hum_003_whaling_control_effective () Bool)
(declare-fun target_hum_003_whaling_control_effective () Bool)
(assert (= source_hum_003_whaling_control_effective target_hum_003_whaling_control_effective))

; hum_004_vishing_mitigated: translation preserves property (matches Coq: Theorem)
(declare-fun source_hum_004_vishing_mitigated () Bool)
(declare-fun target_hum_004_vishing_mitigated () Bool)
(assert (= source_hum_004_vishing_mitigated target_hum_004_vishing_mitigated))

; hum_004_vishing_control_effective: translation preserves property (matches Coq: Theorem)
(declare-fun source_hum_004_vishing_control_effective () Bool)
(declare-fun target_hum_004_vishing_control_effective () Bool)
(assert (= source_hum_004_vishing_control_effective target_hum_004_vishing_control_effective))

; hum_005_smishing_mitigated: translation preserves property (matches Coq: Theorem)
(declare-fun source_hum_005_smishing_mitigated () Bool)
(declare-fun target_hum_005_smishing_mitigated () Bool)
(assert (= source_hum_005_smishing_mitigated target_hum_005_smishing_mitigated))

; hum_005_smishing_control_effective: translation preserves property (matches Coq: Theorem)
(declare-fun source_hum_005_smishing_control_effective () Bool)
(declare-fun target_hum_005_smishing_control_effective () Bool)
(assert (= source_hum_005_smishing_control_effective target_hum_005_smishing_control_effective))

; hum_006_pretexting_mitigated: translation preserves property (matches Coq: Theorem)
(declare-fun source_hum_006_pretexting_mitigated () Bool)
(declare-fun target_hum_006_pretexting_mitigated () Bool)
(assert (= source_hum_006_pretexting_mitigated target_hum_006_pretexting_mitigated))

; hum_006_pretexting_control_effective: translation preserves property (matches Coq: Theorem)
(declare-fun source_hum_006_pretexting_control_effective () Bool)
(declare-fun target_hum_006_pretexting_control_effective () Bool)
(assert (= source_hum_006_pretexting_control_effective target_hum_006_pretexting_control_effective))

; hum_007_baiting_mitigated: translation preserves property (matches Coq: Theorem)
(declare-fun source_hum_007_baiting_mitigated () Bool)
(declare-fun target_hum_007_baiting_mitigated () Bool)
(assert (= source_hum_007_baiting_mitigated target_hum_007_baiting_mitigated))

; hum_007_baiting_control_effective: translation preserves property (matches Coq: Theorem)
(declare-fun source_hum_007_baiting_control_effective () Bool)
(declare-fun target_hum_007_baiting_control_effective () Bool)
(assert (= source_hum_007_baiting_control_effective target_hum_007_baiting_control_effective))

; hum_008_tailgating_mitigated: translation preserves property (matches Coq: Theorem)
(declare-fun source_hum_008_tailgating_mitigated () Bool)
(declare-fun target_hum_008_tailgating_mitigated () Bool)
(assert (= source_hum_008_tailgating_mitigated target_hum_008_tailgating_mitigated))

; hum_008_tailgating_control_effective: translation preserves property (matches Coq: Theorem)
(declare-fun source_hum_008_tailgating_control_effective () Bool)
(declare-fun target_hum_008_tailgating_control_effective () Bool)
(assert (= source_hum_008_tailgating_control_effective target_hum_008_tailgating_control_effective))

; hum_009_dumpster_diving_mitigated: translation preserves property (matches Coq: Theorem)
(declare-fun source_hum_009_dumpster_diving_mitigated () Bool)
(declare-fun target_hum_009_dumpster_diving_mitigated () Bool)
(assert (= source_hum_009_dumpster_diving_mitigated target_hum_009_dumpster_diving_mitigated))

; hum_009_dumpster_diving_control_effective: translation preserves property (matches Coq: Theorem)
(declare-fun source_hum_009_dumpster_diving_control_effective () Bool)
(declare-fun target_hum_009_dumpster_diving_control_effective () Bool)
(assert (= source_hum_009_dumpster_diving_control_effective target_hum_009_dumpster_diving_control_effective))

; hum_010_shoulder_surfing_mitigated: translation preserves property (matches Coq: Theorem)
(declare-fun source_hum_010_shoulder_surfing_mitigated () Bool)
(declare-fun target_hum_010_shoulder_surfing_mitigated () Bool)
(assert (= source_hum_010_shoulder_surfing_mitigated target_hum_010_shoulder_surfing_mitigated))

; hum_010_shoulder_surfing_control_effective: translation preserves property (matches Coq: Theorem)
(declare-fun source_hum_010_shoulder_surfing_control_effective () Bool)
(declare-fun target_hum_010_shoulder_surfing_control_effective () Bool)
(assert (= source_hum_010_shoulder_surfing_control_effective target_hum_010_shoulder_surfing_control_effective))

; hum_011_insider_threat_mitigated: translation preserves property (matches Coq: Theorem)
(declare-fun source_hum_011_insider_threat_mitigated () Bool)
(declare-fun target_hum_011_insider_threat_mitigated () Bool)
(assert (= source_hum_011_insider_threat_mitigated target_hum_011_insider_threat_mitigated))

; hum_011_insider_threat_control_effective: translation preserves property (matches Coq: Theorem)
(declare-fun source_hum_011_insider_threat_control_effective () Bool)
(declare-fun target_hum_011_insider_threat_control_effective () Bool)
(assert (= source_hum_011_insider_threat_control_effective target_hum_011_insider_threat_control_effective))

; hum_012_coercion_mitigated: translation preserves property (matches Coq: Theorem)
(declare-fun source_hum_012_coercion_mitigated () Bool)
(declare-fun target_hum_012_coercion_mitigated () Bool)
(assert (= source_hum_012_coercion_mitigated target_hum_012_coercion_mitigated))

; hum_012_coercion_control_effective: translation preserves property (matches Coq: Theorem)
(declare-fun source_hum_012_coercion_control_effective () Bool)
(declare-fun target_hum_012_coercion_control_effective () Bool)
(assert (= source_hum_012_coercion_control_effective target_hum_012_coercion_control_effective))

; hum_013_bribery_mitigated: translation preserves property (matches Coq: Theorem)
(declare-fun source_hum_013_bribery_mitigated () Bool)
(declare-fun target_hum_013_bribery_mitigated () Bool)
(assert (= source_hum_013_bribery_mitigated target_hum_013_bribery_mitigated))

; hum_013_bribery_control_effective: translation preserves property (matches Coq: Theorem)
(declare-fun source_hum_013_bribery_control_effective () Bool)
(declare-fun target_hum_013_bribery_control_effective () Bool)
(assert (= source_hum_013_bribery_control_effective target_hum_013_bribery_control_effective))

; hum_014_blackmail_mitigated: translation preserves property (matches Coq: Theorem)
(declare-fun source_hum_014_blackmail_mitigated () Bool)
(declare-fun target_hum_014_blackmail_mitigated () Bool)
(assert (= source_hum_014_blackmail_mitigated target_hum_014_blackmail_mitigated))

; hum_014_blackmail_control_effective: translation preserves property (matches Coq: Theorem)
(declare-fun source_hum_014_blackmail_control_effective () Bool)
(declare-fun target_hum_014_blackmail_control_effective () Bool)
(assert (= source_hum_014_blackmail_control_effective target_hum_014_blackmail_control_effective))

; hum_015_social_engineering_mitigated: translation preserves property (matches Coq: Theorem)
(declare-fun source_hum_015_social_engineering_mitigated () Bool)
(declare-fun target_hum_015_social_engineering_mitigated () Bool)
(assert (= source_hum_015_social_engineering_mitigated target_hum_015_social_engineering_mitigated))

; hum_015_social_engineering_control_effective: translation preserves property (matches Coq: Theorem)
(declare-fun source_hum_015_social_engineering_control_effective () Bool)
(declare-fun target_hum_015_social_engineering_control_effective () Bool)
(assert (= source_hum_015_social_engineering_control_effective target_hum_015_social_engineering_control_effective))

; hum_016_credential_sharing_mitigated: translation preserves property (matches Coq: Theorem)
(declare-fun source_hum_016_credential_sharing_mitigated () Bool)
(declare-fun target_hum_016_credential_sharing_mitigated () Bool)
(assert (= source_hum_016_credential_sharing_mitigated target_hum_016_credential_sharing_mitigated))

; hum_016_credential_sharing_control_effective: translation preserves property (matches Coq: Theorem)
(declare-fun source_hum_016_credential_sharing_control_effective () Bool)
(declare-fun target_hum_016_credential_sharing_control_effective () Bool)
(assert (= source_hum_016_credential_sharing_control_effective target_hum_016_credential_sharing_control_effective))

; hum_017_weak_passwords_mitigated: translation preserves property (matches Coq: Theorem)
(declare-fun source_hum_017_weak_passwords_mitigated () Bool)
(declare-fun target_hum_017_weak_passwords_mitigated () Bool)
(assert (= source_hum_017_weak_passwords_mitigated target_hum_017_weak_passwords_mitigated))

; hum_017_weak_passwords_control_effective: translation preserves property (matches Coq: Theorem)
(declare-fun source_hum_017_weak_passwords_control_effective () Bool)
(declare-fun target_hum_017_weak_passwords_control_effective () Bool)
(assert (= source_hum_017_weak_passwords_control_effective target_hum_017_weak_passwords_control_effective))

; hum_018_password_reuse_mitigated: translation preserves property (matches Coq: Theorem)
(declare-fun source_hum_018_password_reuse_mitigated () Bool)
(declare-fun target_hum_018_password_reuse_mitigated () Bool)
(assert (= source_hum_018_password_reuse_mitigated target_hum_018_password_reuse_mitigated))

; hum_018_password_reuse_control_effective: translation preserves property (matches Coq: Theorem)
(declare-fun source_hum_018_password_reuse_control_effective () Bool)
(declare-fun target_hum_018_password_reuse_control_effective () Bool)
(assert (= source_hum_018_password_reuse_control_effective target_hum_018_password_reuse_control_effective))

; hum_019_unsafe_behavior_mitigated: translation preserves property (matches Coq: Theorem)
(declare-fun source_hum_019_unsafe_behavior_mitigated () Bool)
(declare-fun target_hum_019_unsafe_behavior_mitigated () Bool)
(assert (= source_hum_019_unsafe_behavior_mitigated target_hum_019_unsafe_behavior_mitigated))

; hum_019_unsafe_behavior_control_effective: translation preserves property (matches Coq: Theorem)
(declare-fun source_hum_019_unsafe_behavior_control_effective () Bool)
(declare-fun target_hum_019_unsafe_behavior_control_effective () Bool)
(assert (= source_hum_019_unsafe_behavior_control_effective target_hum_019_unsafe_behavior_control_effective))

; hum_020_configuration_error_mitigated: translation preserves property (matches Coq: Theorem)
(declare-fun source_hum_020_configuration_error_mitigated () Bool)
(declare-fun target_hum_020_configuration_error_mitigated () Bool)
(assert (= source_hum_020_configuration_error_mitigated target_hum_020_configuration_error_mitigated))

; hum_020_configuration_error_control_effective: translation preserves property (matches Coq: Theorem)
(declare-fun source_hum_020_configuration_error_control_effective () Bool)
(declare-fun target_hum_020_configuration_error_control_effective () Bool)
(assert (= source_hum_020_configuration_error_control_effective target_hum_020_configuration_error_control_effective))

; hum_021_sock_puppet_campaign_mitigated: translation preserves property (matches Coq: Theorem)
(declare-fun source_hum_021_sock_puppet_campaign_mitigated () Bool)
(declare-fun target_hum_021_sock_puppet_campaign_mitigated () Bool)
(assert (= source_hum_021_sock_puppet_campaign_mitigated target_hum_021_sock_puppet_campaign_mitigated))

; hum_021_sock_puppet_campaign_control_effective: translation preserves property (matches Coq: Theorem)
(declare-fun source_hum_021_sock_puppet_campaign_control_effective () Bool)
(declare-fun target_hum_021_sock_puppet_campaign_control_effective () Bool)
(assert (= source_hum_021_sock_puppet_campaign_control_effective target_hum_021_sock_puppet_campaign_control_effective))

; all_human_threats_mitigated: translation preserves property (matches Coq: Theorem)
(declare-fun source_all_human_threats_mitigated () Bool)
(declare-fun target_all_human_threats_mitigated () Bool)
(assert (= source_all_human_threats_mitigated target_all_human_threats_mitigated))

; example_state_is_phishing_resistant: translation preserves property (matches Coq: Theorem)
(declare-fun source_example_state_is_phishing_resistant () Bool)
(declare-fun target_example_state_is_phishing_resistant () Bool)
(assert (= source_example_state_is_phishing_resistant target_example_state_is_phishing_resistant))

; example_state_mitigates_phishing: translation preserves property (matches Coq: Theorem)
(declare-fun source_example_state_mitigates_phishing () Bool)
(declare-fun target_example_state_mitigates_phishing () Bool)
(assert (= source_example_state_mitigates_phishing target_example_state_mitigates_phishing))

; training_enhances_defenses: translation preserves property (matches Coq: Theorem)
(declare-fun source_training_enhances_defenses () Bool)
(declare-fun target_training_enhances_defenses () Bool)
(assert (= source_training_enhances_defenses target_training_enhances_defenses))

; verification_provides_layered_defense: translation preserves property (matches Coq: Theorem)
(declare-fun source_verification_provides_layered_defense () Bool)
(declare-fun target_verification_provides_layered_defense () Bool)
(assert (= source_verification_provides_layered_defense target_verification_provides_layered_defense))

; physical_logical_complement: translation preserves property (matches Coq: Theorem)
(declare-fun source_physical_logical_complement () Bool)
(declare-fun target_physical_logical_complement () Bool)
(assert (= source_physical_logical_complement target_physical_logical_complement))

; Verify all translation validations are satisfiable
(check-sat)
(exit)
